25° run output:
{
    "Function": "euclidA500.tsp",
    "Problem dimension": [
        497,
        228,
        282,
        71,
        116,
        4,
        407,
        60,
        426,
        51,
        209,
        351,
        155,
        22,
        449,
        175,
        137,
        321,
        323,
        58,
        419,
        236,
        470,
        498,
        47,
        433,
        139,
        496,
        366,
        428,
        31,
        253,
        150,
        466,
        459,
        452,
        451,
        277,
        98,
        288,
        326,
        222,
        299,
        365,
        96,
        55,
        265,
        454,
        99,
        147,
        202,
        7,
        16,
        293,
        453,
        335,
        162,
        224,
        249,
        127,
        446,
        312,
        423,
        123,
        434,
        154,
        94,
        143,
        287,
        408,
        478,
        482,
        168,
        413,
        401,
        325,
        329,
        294,
        333,
        18,
        484,
        410,
        124,
        304,
        5,
        355,
        322,
        371,
        346,
        33,
        357,
        27,
        404,
        39,
        35,
        29,
        386,
        427,
        440,
        100,
        308,
        262,
        206,
        271,
        491,
        80,
        138,
        405,
        210,
        120,
        421,
        88,
        78,
        437,
        101,
        3,
        178,
        1,
        70,
        166,
        50,
        350,
        28,
        364,
        257,
        130,
        467,
        6,
        246,
        268,
        391,
        479,
        367,
        191,
        135,
        260,
        490,
        390,
        373,
        109,
        218,
        317,
        341,
        363,
        134,
        385,
        306,
        44,
        79,
        86,
        255,
        183,
        424,
        189,
        276,
        8,
        389,
        177,
        295,
        121,
        108,
        90,
        378,
        273,
        416,
        146,
        126,
        330,
        328,
        445,
        415,
        493,
        63,
        239,
        379,
        20,
        37,
        240,
        160,
        267,
        291,
        131,
        489,
        412,
        441,
        67,
        203,
        226,
        45,
        201,
        461,
        420,
        115,
        113,
        158,
        243,
        49,
        430,
        340,
        149,
        217,
        376,
        73,
        480,
        76,
        140,
        144,
        181,
        358,
        327,
        382,
        278,
        114,
        48,
        148,
        258,
        403,
        473,
        361,
        195,
        215,
        25,
        435,
        174,
        235,
        54,
        332,
        274,
        283,
        65,
        141,
        106,
        450,
        152,
        280,
        24,
        342,
        339,
        463,
        92,
        223,
        74,
        465,
        377,
        103,
        9,
        483,
        221,
        464,
        254,
        349,
        11,
        313,
        256,
        129,
        488,
        19,
        207,
        400,
        57,
        38,
        112,
        193,
        153,
        172,
        21,
        12,
        344,
        316,
        102,
        200,
        384,
        230,
        290,
        462,
        161,
        171,
        241,
        234,
        383,
        52,
        237,
        250,
        211,
        229,
        292,
        23,
        164,
        477,
        279,
        300,
        176,
        348,
        14,
        422,
        169,
        307,
        220,
        305,
        398,
        46,
        310,
        455,
        318,
        456,
        182,
        458,
        93,
        208,
        72,
        62,
        381,
        492,
        69,
        199,
        320,
        284,
        231,
        142,
        180,
        110,
        301,
        302,
        118,
        198,
        298,
        173,
        432,
        13,
        468,
        399,
        242,
        248,
        494,
        338,
        163,
        303,
        145,
        343,
        68,
        324,
        119,
        353,
        42,
        83,
        375,
        53,
        315,
        395,
        337,
        486,
        43,
        499,
        84,
        227,
        188,
        414,
        476,
        122,
        469,
        393,
        286,
        409,
        334,
        331,
        272,
        97,
        444,
        17,
        436,
        89,
        447,
        429,
        136,
        252,
        59,
        394,
        87,
        64,
        474,
        36,
        192,
        251,
        225,
        105,
        485,
        281,
        374,
        184,
        132,
        117,
        187,
        481,
        314,
        495,
        411,
        261,
        15,
        81,
        82,
        219,
        204,
        354,
        214,
        370,
        457,
        362,
        111,
        439,
        61,
        309,
        186,
        244,
        402,
        352,
        194,
        77,
        368,
        170,
        471,
        190,
        232,
        56,
        448,
        406,
        392,
        159,
        0,
        266,
        26,
        269,
        167,
        247,
        91,
        156,
        475,
        397,
        107,
        263,
        264,
        289,
        196,
        213,
        41,
        179,
        460,
        245,
        297,
        356,
        125,
        212,
        425,
        311,
        336,
        431,
        396,
        296,
        345,
        387,
        443,
        438,
        216,
        40,
        2,
        347,
        388,
        417,
        104,
        369,
        34,
        359,
        66,
        238,
        360,
        380,
        95,
        472,
        30,
        418,
        151,
        32,
        165,
        487,
        157,
        85,
        10,
        75,
        128,
        197,
        285,
        233,
        205,
        442,
        133,
        275,
        270,
        372,
        185,
        259,
        319
    ],
    "Global Optimum": 0,
    "Algorithm": "Genetic algorithm",
    "Parameters": {
        "population": 30,
        "offspring": 30,
        "mutation probability": 0.002,
        "crossover probability": 0.9
    },
    "Fitness": 548295,
    "Solution": [
        497,
        228,
        282,
        71,
        116,
        4,
        407,
        60,
        426,
        51,
        209,
        351,
        155,
        22,
        449,
        175,
        137,
        321,
        323,
        58,
        419,
        236,
        470,
        498,
        47,
        433,
        139,
        496,
        366,
        428,
        31,
        253,
        150,
        466,
        459,
        452,
        451,
        277,
        98,
        288,
        326,
        222,
        299,
        365,
        96,
        55,
        265,
        454,
        99,
        147,
        202,
        7,
        16,
        293,
        453,
        335,
        162,
        224,
        249,
        127,
        446,
        312,
        423,
        123,
        434,
        154,
        94,
        143,
        287,
        408,
        478,
        482,
        168,
        413,
        401,
        325,
        329,
        294,
        333,
        18,
        484,
        410,
        124,
        304,
        5,
        355,
        322,
        371,
        346,
        33,
        357,
        27,
        404,
        39,
        35,
        29,
        386,
        427,
        440,
        100,
        308,
        262,
        206,
        271,
        491,
        80,
        138,
        405,
        210,
        120,
        421,
        88,
        78,
        437,
        101,
        3,
        178,
        1,
        70,
        166,
        50,
        350,
        28,
        364,
        257,
        130,
        467,
        6,
        246,
        268,
        391,
        479,
        367,
        191,
        135,
        260,
        490,
        390,
        373,
        109,
        218,
        317,
        341,
        363,
        134,
        385,
        306,
        44,
        79,
        86,
        255,
        183,
        424,
        189,
        276,
        8,
        389,
        177,
        295,
        121,
        108,
        90,
        378,
        273,
        416,
        146,
        126,
        330,
        328,
        445,
        415,
        493,
        63,
        239,
        379,
        20,
        37,
        240,
        160,
        267,
        291,
        131,
        489,
        412,
        441,
        67,
        203,
        226,
        45,
        201,
        461,
        420,
        115,
        113,
        158,
        243,
        49,
        430,
        340,
        149,
        217,
        376,
        73,
        480,
        76,
        140,
        144,
        181,
        358,
        327,
        382,
        278,
        114,
        48,
        148,
        258,
        403,
        473,
        361,
        195,
        215,
        25,
        435,
        174,
        235,
        54,
        332,
        274,
        283,
        65,
        141,
        106,
        450,
        152,
        280,
        24,
        342,
        339,
        463,
        92,
        223,
        74,
        465,
        377,
        103,
        9,
        483,
        221,
        464,
        254,
        349,
        11,
        313,
        256,
        129,
        488,
        19,
        207,
        400,
        57,
        38,
        112,
        193,
        153,
        172,
        21,
        12,
        344,
        316,
        102,
        200,
        384,
        230,
        290,
        462,
        161,
        171,
        241,
        234,
        383,
        52,
        237,
        250,
        211,
        229,
        292,
        23,
        164,
        477,
        279,
        300,
        176,
        348,
        14,
        422,
        169,
        307,
        220,
        305,
        398,
        46,
        310,
        455,
        318,
        456,
        182,
        458,
        93,
        208,
        72,
        62,
        381,
        492,
        69,
        199,
        320,
        284,
        231,
        142,
        180,
        110,
        301,
        302,
        118,
        198,
        298,
        173,
        432,
        13,
        468,
        399,
        242,
        248,
        494,
        338,
        163,
        303,
        145,
        343,
        68,
        324,
        119,
        353,
        42,
        83,
        375,
        53,
        315,
        395,
        337,
        486,
        43,
        499,
        84,
        227,
        188,
        414,
        476,
        122,
        469,
        393,
        286,
        409,
        334,
        331,
        272,
        97,
        444,
        17,
        436,
        89,
        447,
        429,
        136,
        252,
        59,
        394,
        87,
        64,
        474,
        36,
        192,
        251,
        225,
        105,
        485,
        281,
        374,
        184,
        132,
        117,
        187,
        481,
        314,
        495,
        411,
        261,
        15,
        81,
        82,
        219,
        204,
        354,
        214,
        370,
        457,
        362,
        111,
        439,
        61,
        309,
        186,
        244,
        402,
        352,
        194,
        77,
        368,
        170,
        471,
        190,
        232,
        56,
        448,
        406,
        392,
        159,
        0,
        266,
        26,
        269,
        167,
        247,
        91,
        156,
        475,
        397,
        107,
        263,
        264,
        289,
        196,
        213,
        41,
        179,
        460,
        245,
        297,
        356,
        125,
        212,
        425,
        311,
        336,
        431,
        396,
        296,
        345,
        387,
        443,
        438,
        216,
        40,
        2,
        347,
        388,
        417,
        104,
        369,
        34,
        359,
        66,
        238,
        360,
        380,
        95,
        472,
        30,
        418,
        151,
        32,
        165,
        487,
        157,
        85,
        10,
        75,
        128,
        197,
        285,
        233,
        205,
        442,
        133,
        275,
        270,
        372,
        185,
        259,
        319
    ],
    "Nb of functions evaluations": 400020,
    "Computational time in seconds": 1807.8322265148163,
    "Stopping criterion in evaluations": 400000
}